\* FantasyFootball *\
Maximize
OBJ: 33.5818181818 x_0 + 57.6 x_1 + 129.984848485 x_10 + 85.5454545455 x_100
 + 64 x_101 + 20.6666666667 x_102 + 102.607142857 x_103 + 73.4485294118 x_104
 + 168.178571429 x_105 + 47.8888888889 x_106 + 43.6666666667 x_107
 + 76.6428571429 x_108 + 14.8 x_109 + 84.4222222222 x_11 + 153.25 x_110
 + 38.3333333333 x_111 + 128.416666667 x_112 + 58.9047619048 x_113
 + 51.4 x_114 + 62.2380952381 x_115 + 26.4 x_116 + 73.6666666667 x_117
 + 96.6222222222 x_118 + 18.1904761905 x_119 + 9.5 x_12 + 25.5238095238 x_120
 + 80.0666666667 x_121 + 61.8333333333 x_122 + 96.8333333333 x_123
 + 58.3090909091 x_124 + 74.9 x_125 + 81.9 x_126 + 50.3416666667 x_127
 + 67.5909090909 x_128 + 110.238095238 x_129 + 41 x_130 + 95.1666666667 x_131
 + 73.5 x_132 + 58.5 x_133 + 20.5 x_134 + 79.196969697 x_135 + 51.6 x_136
 + 76.9333333333 x_137 + 87 x_138 + 30.6666666667 x_139 + 71.0666666667 x_14
 + 67.7727272727 x_140 + 121.6 x_141 + 110.666666667 x_142
 + 88.0952380952 x_143 + 77.803030303 x_144 + 102.895238095 x_145
 + 58.6666666667 x_146 + 15.6 x_147 + 5.33333333333 x_148 + 54.4 x_149
 + 2 x_15 + 81 x_150 + 76.6666666667 x_151 + 49.6 x_152 + 23.1944444444 x_153
 + 43.6666666667 x_154 + 35 x_155 + 64 x_156 + 46.3333333333 x_157 + 10 x_158
 + 51 x_159 + 111.381818182 x_16 + 3.33333333333 x_160 + 110.666666667 x_161
 + 102.75 x_162 + 104.666666667 x_163 + 45.6666666667 x_164 + 47.5 x_165
 + 126.6 x_166 + 1.33333333333 x_167 + 176.2 x_168 + 33 x_169
 + 120.666666667 x_170 + 68.6 x_171 + 26.6666666667 x_172
 + 56.0714285714 x_173 + 2.66666666667 x_174 + 140.027777778 x_175
 + 100.333333333 x_176 + 19.6666666667 x_177 + 20 x_178 + 103.5 x_179
 + 29.7272727273 x_18 + 96.0666666667 x_180 + 123.3 x_181
 + 156.333333333 x_182 + 74.5 x_183 + 46.9 x_184 + 147.4 x_185 + 26 x_186
 + 54.6666666667 x_187 + 140.7 x_188 + 94.5 x_189 + 156.933333333 x_19
 + 17.1428571429 x_190 + 104.2 x_191 + 15.1666666667 x_192
 + 93.6666666667 x_193 + 66.75 x_194 + 59.5 x_195 + 37.1785714286 x_196
 + 93.5 x_197 + 59.6 x_198 + 54.1428571429 x_199 + 114.428571429 x_2
 + 5.2 x_20 + 53 x_200 + 87.4 x_201 + 75.380952381 x_202 + 64.6666666667 x_203
 + 50.0666666667 x_204 + 9 x_205 + 96.9642857143 x_206 + 97 x_207
 + 145.666666667 x_208 + 112.714285714 x_209 + 37.4505494505 x_21
 + 25.1333333333 x_210 + 189.527777778 x_211 + 79 x_212 + 109.833333333 x_213
 + 97.9444444444 x_214 + 64.5333333333 x_215 + 106.9 x_216
 + 1.33333333333 x_217 + 100.2 x_218 + 16.3 x_219 + 24.8333333333 x_22
 + 0.5 x_220 + 108.5 x_221 + 7 x_222 + 107.066666667 x_223 + 39 x_224
 + 14.6666666667 x_225 + 91.5 x_226 + 32.2857142857 x_227 + 67.8 x_228
 + 159.294871795 x_229 + 105.720588235 x_23 + 54.5 x_230 + 23.8666666667 x_231
 + 70.6388888889 x_232 + 93.0714285714 x_233 + 10.3 x_234 + 1.5 x_235
 + 66.8333333333 x_236 + 57.2857142857 x_237 + 85.75 x_238
 + 102.285714286 x_239 + 113.2 x_24 + 113.8 x_240 + 24.2666666667 x_241
 + 78 x_242 + 89.0916666667 x_243 + 35.7619047619 x_244 + 62.6666666667 x_245
 + 94.7 x_246 + 230.555555556 x_247 + 47.1666666667 x_248 + 32.2 x_249
 + 49.3333333333 x_25 + 56.9333333333 x_250 + 72.2 x_251 + 63.8974358974 x_252
 + 111.166666667 x_253 + 137.866666667 x_254 + 44 x_255 + 0.333333333333 x_256
 + 97.8 x_257 + 92.5357142857 x_258 + 107.7 x_259 + 10.8 x_260 + 86.75 x_261
 + 110.666666667 x_262 + 50.2666666667 x_263 + 84.6666666667 x_264
 + 112.333333333 x_265 + 19.0952380952 x_266 + 72.1777777778 x_267
 + 14.2 x_268 + 48.5 x_269 + 25.6 x_270 + 114.761904762 x_271
 + 57.4696969697 x_272 + 87.5714285714 x_273 + 79.9869281046 x_274
 + 22.8333333333 x_275 + 12.3333333333 x_276 + 6.66666666667 x_277 + 2.1 x_278
 + 67 x_279 + 99.8333333333 x_28 + 36.8666666667 x_280 + 51.9 x_281
 + 75.3 x_282 + 121.666666667 x_283 + 165.109090909 x_284
 + 111.523809524 x_285 + 86.2888888889 x_286 + 62.0666666667 x_287
 + 144.688888889 x_288 + 0.666666666667 x_289 + 10.3 x_290
 + 31.1666666667 x_291 + 108.7 x_292 + 35.7555555556 x_293 + 46.6 x_294
 + 30.3 x_295 + 87.6666666667 x_296 + x_297 + 20.4642857143 x_298
 + 49.5238095238 x_299 + 22.3928571429 x_3 + 19.0476190476 x_30 + 45.4 x_300
 + 85.6 x_301 + 30 x_302 + 40.9333333333 x_303 + 22 x_304 + 31 x_305
 + 1.33333333333 x_306 + 29.6666666667 x_307 + 22 x_308 + 56.3333333333 x_309
 + 147.333333333 x_31 + 86.6666666667 x_310 + 106 x_311 + 139.666666667 x_312
 + 81 x_313 + 37 x_314 + 90.8333333333 x_315 + 0.666666666667 x_316
 + 118.214285714 x_317 + 42.619047619 x_318 + 119.861111111 x_319
 + 194.435897436 x_320 + 5 x_321 + 8.2 x_322 + 159.166666667 x_323
 + 95.5238095238 x_324 + 41.3333333333 x_325 + 87.9285714286 x_326
 + 79.9 x_327 + 7.4 x_328 + 70.6666666667 x_329 + 28.4722222222 x_33
 + 12 x_330 + 91 x_331 + 107.866666667 x_332 + 100.644444444 x_333
 + 83.6666666667 x_334 + 43.3333333333 x_335 + 43.6666666667 x_336
 + 67.3 x_337 + 22 x_338 + 83.1333333333 x_339 + 144.571428571 x_34
 + 87.4666666667 x_340 + 52.3333333333 x_341 + 34.3333333333 x_342
 + 55.3928571429 x_343 + 2.66666666667 x_344 + 137.666666667 x_345
 + 104.666666667 x_346 + 2.66666666667 x_35 + 98.4666666667 x_36
 + 5.33333333333 x_37 + 8.91666666667 x_38 + 15.8333333333 x_39
 + 70.5714285714 x_4 + 142.333333333 x_42 + 26.5 x_43 + 16.9 x_44
 + 16.6428571429 x_45 + 50.7333333333 x_46 + 78.3333333333 x_47
 + 83.7777777778 x_48 + 76.3333333333 x_49 + 78 x_50 + 83.3214285714 x_51
 + 45.6111111111 x_52 + 134.666666667 x_53 + 38.1428571429 x_54 + 58.5 x_55
 + 16.3333333333 x_56 + 70 x_57 + 46.3333333333 x_58 + 115.3 x_59
 + 127.964285714 x_6 + 62.5714285714 x_60 + 0.333333333333 x_61
 + 83.619047619 x_62 + 30.5 x_63 + 49.1428571429 x_64 + 17.4 x_65
 + 33.8444444444 x_66 + 89.3333333333 x_67 + 61.7090909091 x_68
 + 87.3611111111 x_69 + 20.8 x_7 + 33.3777777778 x_70 + 80.3484848485 x_71
 + 87.2666666667 x_72 + 91.3333333333 x_73 + 49.5 x_74 + 6.3 x_75 + 65 x_76
 + 60 x_77 + 34.0666666667 x_78 + 14.8 x_79 + 92.3333333333 x_80
 + 39.2424242424 x_81 + 89.3333333333 x_82 + 16.2666666667 x_83 + 97.7 x_84
 + 86.7222222222 x_85 + 8.42857142857 x_86 + 115.727272727 x_87 + 57.5 x_88
 + 84.8333333333 x_89 + 45.5128205128 x_9 + 85.3333333333 x_90 + 36 x_91
 + 12.6666666667 x_92 + 88.4 x_93 + 10 x_94 + 98.6666666667 x_95 + 3.2 x_96
 + 86.8 x_97 + 44.5 x_98 + 45.4444444444 x_99
Subject To
Con_EQ1_Goalkeepers: x_0 + x_1 + x_10 + x_11 + x_12 + x_13 + x_14 + x_15
 + x_16 + x_17 + x_18 + x_19 + x_2 + x_20 + x_21 + x_22 + x_23 + x_24 + x_25
 + x_26 + x_27 + x_28 + x_29 + x_3 + x_30 + x_31 + x_32 + x_33 + x_34 + x_35
 + x_36 + x_37 + x_38 + x_39 + x_4 + x_40 + x_41 + x_42 + x_5 + x_6 + x_7
 + x_8 + x_9 = 1
_dummy: __dummy = 0
Con_EQ_AvoidInjuries: __dummy = 0
Con_EQ_DefendersCount: C_def + x_100 + x_101 + x_102 + x_103 + x_104 + x_105
 + x_106 + x_107 + x_108 + x_109 + x_110 + x_111 + x_112 + x_113 + x_114
 + x_115 + x_116 + x_117 + x_118 + x_119 + x_120 + x_121 + x_122 + x_123
 + x_124 + x_125 + x_126 + x_127 + x_128 + x_129 + x_130 + x_131 + x_132
 + x_133 + x_134 + x_135 + x_136 + x_137 + x_138 + x_139 + x_140 + x_141
 + x_142 + x_143 + x_144 + x_145 + x_146 + x_147 + x_148 + x_149 + x_150
 + x_151 + x_152 + x_153 + x_154 + x_155 + x_156 + x_157 + x_158 + x_159
 + x_160 + x_161 + x_162 + x_163 + x_164 + x_165 + x_43 + x_44 + x_45 + x_46
 + x_47 + x_48 + x_49 + x_50 + x_51 + x_52 + x_53 + x_54 + x_55 + x_56 + x_57
 + x_58 + x_59 + x_60 + x_61 + x_62 + x_63 + x_64 + x_65 + x_66 + x_67 + x_68
 + x_69 + x_70 + x_71 + x_72 + x_73 + x_74 + x_75 + x_76 + x_77 + x_78 + x_79
 + x_80 + x_81 + x_82 + x_83 + x_84 + x_85 + x_86 + x_87 + x_88 + x_89 + x_90
 + x_91 + x_92 + x_93 + x_94 + x_95 + x_96 + x_97 + x_98 + x_99 = 5
Con_EQ_ForwardsCount: C_fwd + x_315 + x_316 + x_317 + x_318 + x_319 + x_320
 + x_321 + x_322 + x_323 + x_324 + x_325 + x_326 + x_327 + x_328 + x_329
 + x_330 + x_331 + x_332 + x_333 + x_334 + x_335 + x_336 + x_337 + x_338
 + x_339 + x_340 + x_341 + x_342 + x_343 + x_344 + x_345 + x_346 = 3
Con_EQ_GoalkeepersCount: C_gk + x_0 + x_1 + x_10 + x_11 + x_12 + x_13 + x_14
 + x_15 + x_16 + x_17 + x_18 + x_19 + x_2 + x_20 + x_21 + x_22 + x_23 + x_24
 + x_25 + x_26 + x_27 + x_28 + x_29 + x_3 + x_30 + x_31 + x_32 + x_33 + x_34
 + x_35 + x_36 + x_37 + x_38 + x_39 + x_4 + x_40 + x_41 + x_42 + x_5 + x_6
 + x_7 + x_8 + x_9 = 2
Con_EQ_MidfieldersCount: C_mid + x_166 + x_167 + x_168 + x_169 + x_170 + x_171
 + x_172 + x_173 + x_174 + x_175 + x_176 + x_177 + x_178 + x_179 + x_180
 + x_181 + x_182 + x_183 + x_184 + x_185 + x_186 + x_187 + x_188 + x_189
 + x_190 + x_191 + x_192 + x_193 + x_194 + x_195 + x_196 + x_197 + x_198
 + x_199 + x_200 + x_201 + x_202 + x_203 + x_204 + x_205 + x_206 + x_207
 + x_208 + x_209 + x_210 + x_211 + x_212 + x_213 + x_214 + x_215 + x_216
 + x_217 + x_218 + x_219 + x_220 + x_221 + x_222 + x_223 + x_224 + x_225
 + x_226 + x_227 + x_228 + x_229 + x_230 + x_231 + x_232 + x_233 + x_234
 + x_235 + x_236 + x_237 + x_238 + x_239 + x_240 + x_241 + x_242 + x_243
 + x_244 + x_245 + x_246 + x_247 + x_248 + x_249 + x_250 + x_251 + x_252
 + x_253 + x_254 + x_255 + x_256 + x_257 + x_258 + x_259 + x_260 + x_261
 + x_262 + x_263 + x_264 + x_265 + x_266 + x_267 + x_268 + x_269 + x_270
 + x_271 + x_272 + x_273 + x_274 + x_275 + x_276 + x_277 + x_278 + x_279
 + x_280 + x_281 + x_282 + x_283 + x_284 + x_285 + x_286 + x_287 + x_288
 + x_289 + x_290 + x_291 + x_292 + x_293 + x_294 + x_295 + x_296 + x_297
 + x_298 + x_299 + x_300 + x_301 + x_302 + x_303 + x_304 + x_305 + x_306
 + x_307 + x_308 + x_309 + x_310 + x_311 + x_312 + x_313 + x_314 = 5
Con_EQ_TeamCount: x_0 + x_1 + x_10 + x_100 + x_101 + x_102 + x_103 + x_104
 + x_105 + x_106 + x_107 + x_108 + x_109 + x_11 + x_110 + x_111 + x_112
 + x_113 + x_114 + x_115 + x_116 + x_117 + x_118 + x_119 + x_12 + x_120
 + x_121 + x_122 + x_123 + x_124 + x_125 + x_126 + x_127 + x_128 + x_129
 + x_13 + x_130 + x_131 + x_132 + x_133 + x_134 + x_135 + x_136 + x_137
 + x_138 + x_139 + x_14 + x_140 + x_141 + x_142 + x_143 + x_144 + x_145
 + x_146 + x_147 + x_148 + x_149 + x_15 + x_150 + x_151 + x_152 + x_153
 + x_154 + x_155 + x_156 + x_157 + x_158 + x_159 + x_16 + x_160 + x_161
 + x_162 + x_163 + x_164 + x_165 + x_166 + x_167 + x_168 + x_169 + x_17
 + x_170 + x_171 + x_172 + x_173 + x_174 + x_175 + x_176 + x_177 + x_178
 + x_179 + x_18 + x_180 + x_181 + x_182 + x_183 + x_184 + x_185 + x_186
 + x_187 + x_188 + x_189 + x_19 + x_190 + x_191 + x_192 + x_193 + x_194
 + x_195 + x_196 + x_197 + x_198 + x_199 + x_2 + x_20 + x_200 + x_201 + x_202
 + x_203 + x_204 + x_205 + x_206 + x_207 + x_208 + x_209 + x_21 + x_210
 + x_211 + x_212 + x_213 + x_214 + x_215 + x_216 + x_217 + x_218 + x_219
 + x_22 + x_220 + x_221 + x_222 + x_223 + x_224 + x_225 + x_226 + x_227
 + x_228 + x_229 + x_23 + x_230 + x_231 + x_232 + x_233 + x_234 + x_235
 + x_236 + x_237 + x_238 + x_239 + x_24 + x_240 + x_241 + x_242 + x_243
 + x_244 + x_245 + x_246 + x_247 + x_248 + x_249 + x_25 + x_250 + x_251
 + x_252 + x_253 + x_254 + x_255 + x_256 + x_257 + x_258 + x_259 + x_26
 + x_260 + x_261 + x_262 + x_263 + x_264 + x_265 + x_266 + x_267 + x_268
 + x_269 + x_27 + x_270 + x_271 + x_272 + x_273 + x_274 + x_275 + x_276
 + x_277 + x_278 + x_279 + x_28 + x_280 + x_281 + x_282 + x_283 + x_284
 + x_285 + x_286 + x_287 + x_288 + x_289 + x_29 + x_290 + x_291 + x_292
 + x_293 + x_294 + x_295 + x_296 + x_297 + x_298 + x_299 + x_3 + x_30 + x_300
 + x_301 + x_302 + x_303 + x_304 + x_305 + x_306 + x_307 + x_308 + x_309
 + x_31 + x_310 + x_311 + x_312 + x_313 + x_314 + x_315 + x_316 + x_317
 + x_318 + x_319 + x_32 + x_320 + x_321 + x_322 + x_323 + x_324 + x_325
 + x_326 + x_327 + x_328 + x_329 + x_33 + x_330 + x_331 + x_332 + x_333
 + x_334 + x_335 + x_336 + x_337 + x_338 + x_339 + x_34 + x_340 + x_341
 + x_342 + x_343 + x_344 + x_345 + x_346 + x_35 + x_36 + x_37 + x_38 + x_39
 + x_4 + x_40 + x_41 + x_42 + x_43 + x_44 + x_45 + x_46 + x_47 + x_48 + x_49
 + x_5 + x_50 + x_51 + x_52 + x_53 + x_54 + x_55 + x_56 + x_57 + x_58 + x_59
 + x_6 + x_60 + x_61 + x_62 + x_63 + x_64 + x_65 + x_66 + x_67 + x_68 + x_69
 + x_7 + x_70 + x_71 + x_72 + x_73 + x_74 + x_75 + x_76 + x_77 + x_78 + x_79
 + x_8 + x_80 + x_81 + x_82 + x_83 + x_84 + x_85 + x_86 + x_87 + x_88 + x_89
 + x_9 + x_90 + x_91 + x_92 + x_93 + x_94 + x_95 + x_96 + x_97 + x_98 + x_99
 = 11
Con_GE1_Forwards: x_315 + x_316 + x_317 + x_318 + x_319 + x_320 + x_321
 + x_322 + x_323 + x_324 + x_325 + x_326 + x_327 + x_328 + x_329 + x_330
 + x_331 + x_332 + x_333 + x_334 + x_335 + x_336 + x_337 + x_338 + x_339
 + x_340 + x_341 + x_342 + x_343 + x_344 + x_345 + x_346 >= 1
Con_GE3_Defenders: x_100 + x_101 + x_102 + x_103 + x_104 + x_105 + x_106
 + x_107 + x_108 + x_109 + x_110 + x_111 + x_112 + x_113 + x_114 + x_115
 + x_116 + x_117 + x_118 + x_119 + x_120 + x_121 + x_122 + x_123 + x_124
 + x_125 + x_126 + x_127 + x_128 + x_129 + x_130 + x_131 + x_132 + x_133
 + x_134 + x_135 + x_136 + x_137 + x_138 + x_139 + x_140 + x_141 + x_142
 + x_143 + x_144 + x_145 + x_146 + x_147 + x_148 + x_149 + x_150 + x_151
 + x_152 + x_153 + x_154 + x_155 + x_156 + x_157 + x_158 + x_159 + x_160
 + x_161 + x_162 + x_163 + x_164 + x_165 + x_43 + x_44 + x_45 + x_46 + x_47
 + x_48 + x_49 + x_50 + x_51 + x_52 + x_53 + x_54 + x_55 + x_56 + x_57 + x_58
 + x_59 + x_60 + x_61 + x_62 + x_63 + x_64 + x_65 + x_66 + x_67 + x_68 + x_69
 + x_70 + x_71 + x_72 + x_73 + x_74 + x_75 + x_76 + x_77 + x_78 + x_79 + x_80
 + x_81 + x_82 + x_83 + x_84 + x_85 + x_86 + x_87 + x_88 + x_89 + x_90 + x_91
 + x_92 + x_93 + x_94 + x_95 + x_96 + x_97 + x_98 + x_99 >= 3
Con_LE5_Defenders: x_100 + x_101 + x_102 + x_103 + x_104 + x_105 + x_106
 + x_107 + x_108 + x_109 + x_110 + x_111 + x_112 + x_113 + x_114 + x_115
 + x_116 + x_117 + x_118 + x_119 + x_120 + x_121 + x_122 + x_123 + x_124
 + x_125 + x_126 + x_127 + x_128 + x_129 + x_130 + x_131 + x_132 + x_133
 + x_134 + x_135 + x_136 + x_137 + x_138 + x_139 + x_140 + x_141 + x_142
 + x_143 + x_144 + x_145 + x_146 + x_147 + x_148 + x_149 + x_150 + x_151
 + x_152 + x_153 + x_154 + x_155 + x_156 + x_157 + x_158 + x_159 + x_160
 + x_161 + x_162 + x_163 + x_164 + x_165 + x_43 + x_44 + x_45 + x_46 + x_47
 + x_48 + x_49 + x_50 + x_51 + x_52 + x_53 + x_54 + x_55 + x_56 + x_57 + x_58
 + x_59 + x_60 + x_61 + x_62 + x_63 + x_64 + x_65 + x_66 + x_67 + x_68 + x_69
 + x_70 + x_71 + x_72 + x_73 + x_74 + x_75 + x_76 + x_77 + x_78 + x_79 + x_80
 + x_81 + x_82 + x_83 + x_84 + x_85 + x_86 + x_87 + x_88 + x_89 + x_90 + x_91
 + x_92 + x_93 + x_94 + x_95 + x_96 + x_97 + x_98 + x_99 <= 5
Con_LE5_Midfielders: x_166 + x_167 + x_168 + x_169 + x_170 + x_171 + x_172
 + x_173 + x_174 + x_175 + x_176 + x_177 + x_178 + x_179 + x_180 + x_181
 + x_182 + x_183 + x_184 + x_185 + x_186 + x_187 + x_188 + x_189 + x_190
 + x_191 + x_192 + x_193 + x_194 + x_195 + x_196 + x_197 + x_198 + x_199
 + x_200 + x_201 + x_202 + x_203 + x_204 + x_205 + x_206 + x_207 + x_208
 + x_209 + x_210 + x_211 + x_212 + x_213 + x_214 + x_215 + x_216 + x_217
 + x_218 + x_219 + x_220 + x_221 + x_222 + x_223 + x_224 + x_225 + x_226
 + x_227 + x_228 + x_229 + x_230 + x_231 + x_232 + x_233 + x_234 + x_235
 + x_236 + x_237 + x_238 + x_239 + x_240 + x_241 + x_242 + x_243 + x_244
 + x_245 + x_246 + x_247 + x_248 + x_249 + x_250 + x_251 + x_252 + x_253
 + x_254 + x_255 + x_256 + x_257 + x_258 + x_259 + x_260 + x_261 + x_262
 + x_263 + x_264 + x_265 + x_266 + x_267 + x_268 + x_269 + x_270 + x_271
 + x_272 + x_273 + x_274 + x_275 + x_276 + x_277 + x_278 + x_279 + x_280
 + x_281 + x_282 + x_283 + x_284 + x_285 + x_286 + x_287 + x_288 + x_289
 + x_290 + x_291 + x_292 + x_293 + x_294 + x_295 + x_296 + x_297 + x_298
 + x_299 + x_300 + x_301 + x_302 + x_303 + x_304 + x_305 + x_306 + x_307
 + x_308 + x_309 + x_310 + x_311 + x_312 + x_313 + x_314 <= 5
Con_LE_MaxARSCount: x_178 + x_179 + x_180 + x_181 + x_182 + x_183 + x_184
 + x_185 + x_186 + x_187 + x_188 + x_189 + x_190 + x_2 + x_317 + x_318 + x_52
 + x_53 + x_54 + x_55 + x_56 + x_57 + x_58 + x_59 + x_60 <= 3
Con_LE_MaxAVLCount: x_11 + x_12 + x_13 + x_212 + x_213 + x_214 + x_215 + x_216
 + x_217 + x_218 + x_219 + x_220 + x_221 + x_222 + x_223 + x_224 + x_321
 + x_322 + x_323 + x_80 + x_81 + x_82 + x_83 + x_84 + x_85 <= 3
Con_LE_MaxBHACount: x_129 + x_130 + x_131 + x_132 + x_268 + x_269 + x_27
 + x_270 + x_271 + x_272 + x_273 + x_274 + x_275 + x_276 + x_28 + x_29 + x_30
 + x_336 + x_337 <= 3
Con_LE_MaxBOUCount: x_153 + x_154 + x_155 + x_156 + x_301 + x_302 + x_303
 + x_304 + x_343 + x_38 + x_39 <= 3
Con_LE_MaxBRECount: x_157 + x_158 + x_159 + x_160 + x_161 + x_162 + x_163
 + x_164 + x_165 + x_305 + x_306 + x_307 + x_308 + x_309 + x_310 + x_311
 + x_312 + x_313 + x_314 + x_344 + x_345 + x_346 + x_40 + x_41 + x_42 <= 3
Con_LE_MaxBURCount: x_342 <= 3
Con_LE_MaxCHECount: x_14 + x_15 + x_225 + x_226 + x_227 + x_228 + x_229
 + x_230 + x_324 + x_325 + x_86 + x_87 + x_88 + x_89 + x_90 + x_91 + x_92
 + x_93 + x_94 + x_95 <= 3
Con_LE_MaxCRYCount: x_123 + x_124 + x_125 + x_126 + x_127 + x_128 + x_24
 + x_25 + x_26 + x_261 + x_262 + x_263 + x_264 + x_265 + x_266 + x_267 + x_334
 + x_335 <= 3
Con_LE_MaxEVECount: x_100 + x_101 + x_102 + x_103 + x_104 + x_16 + x_17
 + x_231 + x_232 + x_233 + x_234 + x_235 + x_236 + x_237 + x_238 + x_239
 + x_326 + x_327 + x_328 + x_96 + x_97 + x_98 + x_99 <= 3
Con_LE_MaxFULCount: x_146 + x_147 + x_148 + x_149 + x_150 + x_151 + x_152
 + x_293 + x_294 + x_295 + x_296 + x_297 + x_298 + x_299 + x_300 + x_340
 + x_341 + x_36 + x_37 <= 3
Con_LE_MaxLIVCount: x_105 + x_106 + x_107 + x_108 + x_109 + x_110 + x_111
 + x_112 + x_18 + x_19 + x_20 + x_240 + x_241 + x_242 + x_243 + x_244 + x_245
 + x_246 + x_247 + x_248 <= 3
Con_LE_MaxMCICount: x_140 + x_141 + x_142 + x_143 + x_144 + x_145 + x_283
 + x_284 + x_285 + x_286 + x_287 + x_288 + x_289 + x_290 + x_291 + x_292
 + x_33 + x_34 + x_35 <= 3
Con_LE_MaxMUNCount: x_0 + x_1 + x_166 + x_167 + x_168 + x_169 + x_170 + x_171
 + x_172 + x_173 + x_174 + x_175 + x_176 + x_177 + x_315 + x_316 + x_43 + x_44
 + x_45 + x_46 + x_47 + x_48 + x_49 + x_50 + x_51 <= 3
Con_LE_MaxNEWCount: x_191 + x_192 + x_193 + x_194 + x_195 + x_196 + x_197
 + x_198 + x_199 + x_200 + x_201 + x_202 + x_3 + x_319 + x_4 + x_5 + x_6
 + x_61 + x_62 + x_63 + x_64 + x_65 + x_66 + x_67 + x_68 + x_69 + x_7 + x_70
 <= 3
Con_LE_MaxNFOCount: x_113 + x_114 + x_115 + x_116 + x_21 + x_249 + x_250
 + x_251 + x_252 + x_329 + x_330 + x_331 <= 3
Con_LE_MaxTOTCount: x_10 + x_203 + x_204 + x_205 + x_206 + x_207 + x_208
 + x_209 + x_210 + x_211 + x_320 + x_71 + x_72 + x_73 + x_74 + x_75 + x_76
 + x_77 + x_78 + x_79 + x_8 + x_9 <= 3
Con_LE_MaxWHUCount: x_117 + x_118 + x_119 + x_120 + x_121 + x_122 + x_22
 + x_23 + x_253 + x_254 + x_255 + x_256 + x_257 + x_258 + x_259 + x_260
 + x_332 + x_333 <= 3
Con_LE_MaxWOLCount: x_133 + x_134 + x_135 + x_136 + x_137 + x_138 + x_139
 + x_277 + x_278 + x_279 + x_280 + x_281 + x_282 + x_31 + x_32 + x_338 + x_339
 <= 3
Con_LE_SquadCost: 4 C_def + 4.5 C_fwd + 4 C_gk + 4.5 C_mid + 4 x_0 + 4.5 x_1
 + 5 x_10 + 4.5 x_100 + 4.5 x_101 + 4.5 x_102 + 4.5 x_103 + 4.5 x_104
 + 8 x_105 + 4.5 x_106 + 5 x_107 + 5 x_108 + 4 x_109 + 5 x_11 + 6.5 x_110
 + 4.5 x_111 + 6 x_112 + 4.5 x_113 + 4.5 x_114 + 4.5 x_115 + 4.5 x_116
 + 4.5 x_117 + 4.5 x_118 + 4.5 x_119 + 4 x_12 + 4.5 x_120 + 4.5 x_121
 + 4.5 x_122 + 4.5 x_123 + 4.5 x_124 + 4.5 x_125 + 4.5 x_126 + 4 x_127
 + 4.5 x_128 + 5 x_129 + 4 x_13 + 4 x_130 + 4.5 x_131 + 4.5 x_132 + 4.5 x_133
 + 4.5 x_134 + 4.5 x_135 + 4.5 x_136 + 4.5 x_137 + 4.5 x_138 + 4.5 x_139
 + 5 x_14 + 5 x_140 + 6 x_141 + 5.5 x_142 + 5 x_143 + 5.5 x_144 + 5 x_145
 + 4.5 x_146 + 4 x_147 + 4 x_148 + 4.5 x_149 + 4 x_15 + 4.5 x_150 + 4.5 x_151
 + 4.5 x_152 + 4.5 x_153 + 4.5 x_154 + 4.5 x_155 + 4.5 x_156 + 4.5 x_157
 + 4 x_158 + 4.5 x_159 + 4.5 x_16 + 4 x_160 + 4.5 x_161 + 5 x_162 + 4.5 x_163
 + 4.5 x_164 + 4.5 x_165 + 7 x_166 + 4.5 x_167 + 8.5 x_168 + 5 x_169 + 4 x_17
 + 6 x_170 + 5 x_171 + 5 x_172 + 5 x_173 + 4.5 x_174 + 9 x_175 + 7 x_176
 + 5 x_177 + 4.5 x_178 + 7.5 x_179 + 4 x_18 + 5.5 x_180 + 8 x_181 + 8.5 x_182
 + 5 x_183 + 5 x_184 + 8.5 x_185 + 5 x_186 + 5.5 x_187 + 7 x_188 + 6 x_189
 + 5.5 x_19 + 5 x_190 + 6.5 x_191 + 4.5 x_192 + 6 x_193 + 5 x_194 + 5.5 x_195
 + 4.5 x_196 + 6 x_197 + 5 x_198 + 5 x_199 + 5 x_2 + 4 x_20 + 4.5 x_200
 + 6 x_201 + 5.5 x_202 + 5.5 x_203 + 5 x_204 + 5 x_205 + 5.5 x_206 + 7 x_207
 + 7.5 x_208 + 7 x_209 + 4 x_21 + 5 x_210 + 9 x_211 + 5.5 x_212 + 6 x_213
 + 6 x_214 + 5 x_215 + 5.5 x_216 + 4.5 x_217 + 5.5 x_218 + 4.5 x_219 + 4 x_22
 + 4.5 x_220 + 6 x_221 + 4.5 x_222 + 6 x_223 + 5 x_224 + 4.5 x_225 + 5.5 x_226
 + 5 x_227 + 5.5 x_228 + 7 x_229 + 4.5 x_23 + 5.5 x_230 + 4.5 x_231 + 5 x_232
 + 5.5 x_233 + 5 x_234 + 4.5 x_235 + 5.5 x_236 + 5 x_237 + 5.5 x_238
 + 5.5 x_239 + 4.5 x_24 + 8 x_240 + 5 x_241 + 5 x_242 + 5 x_243 + 5 x_244
 + 7.5 x_245 + 6 x_246 + 12.5 x_247 + 5 x_248 + 4.5 x_249 + 4.5 x_25 + 6 x_250
 + 5 x_251 + 5 x_252 + 6 x_253 + 7 x_254 + 5.5 x_255 + 4.5 x_256 + 5 x_257
 + 5.5 x_258 + 5 x_259 + 4 x_26 + 4.5 x_260 + 5.5 x_261 + 6.5 x_262 + 5 x_263
 + 5 x_264 + 6 x_265 + 4.5 x_266 + 5 x_267 + 4.5 x_268 + 5 x_269 + 4 x_27
 + 5 x_270 + 6.5 x_271 + 5 x_272 + 6.5 x_273 + 5 x_274 + 4.5 x_275 + 4.5 x_276
 + 4.5 x_277 + 4.5 x_278 + 5.5 x_279 + 4.5 x_28 + 5 x_280 + 5.5 x_281
 + 5.5 x_282 + 6.5 x_283 + 10.5 x_284 + 7.5 x_285 + 7.5 x_286 + 5 x_287
 + 7.5 x_288 + 4.5 x_289 + 4 x_29 + 5 x_290 + 5 x_291 + 5.5 x_292 + 5.5 x_293
 + 5 x_294 + 5 x_295 + 5.5 x_296 + 4.5 x_297 + 4.5 x_298 + 5 x_299 + 4 x_3
 + 4.5 x_30 + 5.5 x_300 + 5.5 x_301 + 5 x_302 + 5 x_303 + 5 x_304 + 4.5 x_305
 + 4.5 x_306 + 5 x_307 + 5 x_308 + 5 x_309 + 5 x_31 + 5.5 x_310 + 5.5 x_311
 + 6.5 x_312 + 5.5 x_313 + 5 x_314 + 6.5 x_315 + 4.5 x_316 + 8 x_317
 + 5.5 x_318 + 8 x_319 + 4 x_32 + 12.5 x_320 + 4.5 x_321 + 5 x_322 + 8 x_323
 + 6.5 x_324 + 5 x_325 + 6 x_326 + 5 x_327 + 4.5 x_328 + 5 x_329 + 4 x_33
 + 4.5 x_330 + 5 x_331 + 6 x_332 + 6 x_333 + 5.5 x_334 + 5 x_335 + 6 x_336
 + 6 x_337 + 5.5 x_338 + 5.5 x_339 + 5.5 x_34 + 7.5 x_340 + 5 x_341
 + 5.5 x_342 + 6.5 x_343 + 4.5 x_344 + 8 x_345 + 6 x_346 + 4 x_35 + 4.5 x_36
 + 4 x_37 + 4 x_38 + 4 x_39 + 4 x_4 + 4 x_40 + 4 x_41 + 5 x_42 + 4.5 x_43
 + 4 x_44 + 4 x_45 + 5 x_46 + 4.5 x_47 + 4.5 x_48 + 5 x_49 + 4 x_5 + 5.5 x_50
 + 4.5 x_51 + 4 x_52 + 5 x_53 + 4.5 x_54 + 5 x_55 + 4 x_56 + 4.5 x_57
 + 4.5 x_58 + 5.5 x_59 + 5.5 x_6 + 5 x_60 + 4 x_61 + 4.5 x_62 + 4.5 x_63
 + 4 x_64 + 4 x_65 + 4 x_66 + 5 x_67 + 4.5 x_68 + 6.5 x_69 + 4 x_7 + 4 x_70
 + 4.5 x_71 + 4.5 x_72 + 4.5 x_73 + 4.5 x_74 + 4 x_75 + 4.5 x_76 + 4.5 x_77
 + 4.5 x_78 + 4 x_79 + 4 x_8 + 4.5 x_80 + 4 x_81 + 4.5 x_82 + 4 x_83
 + 4.5 x_84 + 4.5 x_85 + 4 x_86 + 4.5 x_87 + 4.5 x_88 + 5.5 x_89 + 4 x_9
 + 5 x_90 + 4.5 x_91 + 4.5 x_92 + 5.5 x_93 + 4.5 x_94 + 5 x_95 + 4 x_96
 + 4.5 x_97 + 4.5 x_98 + 4 x_99 <= 100
Bounds
 C_def free
 C_fwd free
 C_gk free
 C_mid free
 __dummy = 0
Binaries
x_0
x_1
x_10
x_100
x_101
x_102
x_103
x_104
x_105
x_106
x_107
x_108
x_109
x_11
x_110
x_111
x_112
x_113
x_114
x_115
x_116
x_117
x_118
x_119
x_12
x_120
x_121
x_122
x_123
x_124
x_125
x_126
x_127
x_128
x_129
x_13
x_130
x_131
x_132
x_133
x_134
x_135
x_136
x_137
x_138
x_139
x_14
x_140
x_141
x_142
x_143
x_144
x_145
x_146
x_147
x_148
x_149
x_15
x_150
x_151
x_152
x_153
x_154
x_155
x_156
x_157
x_158
x_159
x_16
x_160
x_161
x_162
x_163
x_164
x_165
x_166
x_167
x_168
x_169
x_17
x_170
x_171
x_172
x_173
x_174
x_175
x_176
x_177
x_178
x_179
x_18
x_180
x_181
x_182
x_183
x_184
x_185
x_186
x_187
x_188
x_189
x_19
x_190
x_191
x_192
x_193
x_194
x_195
x_196
x_197
x_198
x_199
x_2
x_20
x_200
x_201
x_202
x_203
x_204
x_205
x_206
x_207
x_208
x_209
x_21
x_210
x_211
x_212
x_213
x_214
x_215
x_216
x_217
x_218
x_219
x_22
x_220
x_221
x_222
x_223
x_224
x_225
x_226
x_227
x_228
x_229
x_23
x_230
x_231
x_232
x_233
x_234
x_235
x_236
x_237
x_238
x_239
x_24
x_240
x_241
x_242
x_243
x_244
x_245
x_246
x_247
x_248
x_249
x_25
x_250
x_251
x_252
x_253
x_254
x_255
x_256
x_257
x_258
x_259
x_26
x_260
x_261
x_262
x_263
x_264
x_265
x_266
x_267
x_268
x_269
x_27
x_270
x_271
x_272
x_273
x_274
x_275
x_276
x_277
x_278
x_279
x_28
x_280
x_281
x_282
x_283
x_284
x_285
x_286
x_287
x_288
x_289
x_29
x_290
x_291
x_292
x_293
x_294
x_295
x_296
x_297
x_298
x_299
x_3
x_30
x_300
x_301
x_302
x_303
x_304
x_305
x_306
x_307
x_308
x_309
x_31
x_310
x_311
x_312
x_313
x_314
x_315
x_316
x_317
x_318
x_319
x_32
x_320
x_321
x_322
x_323
x_324
x_325
x_326
x_327
x_328
x_329
x_33
x_330
x_331
x_332
x_333
x_334
x_335
x_336
x_337
x_338
x_339
x_34
x_340
x_341
x_342
x_343
x_344
x_345
x_346
x_35
x_36
x_37
x_38
x_39
x_4
x_40
x_41
x_42
x_43
x_44
x_45
x_46
x_47
x_48
x_49
x_5
x_50
x_51
x_52
x_53
x_54
x_55
x_56
x_57
x_58
x_59
x_6
x_60
x_61
x_62
x_63
x_64
x_65
x_66
x_67
x_68
x_69
x_7
x_70
x_71
x_72
x_73
x_74
x_75
x_76
x_77
x_78
x_79
x_8
x_80
x_81
x_82
x_83
x_84
x_85
x_86
x_87
x_88
x_89
x_9
x_90
x_91
x_92
x_93
x_94
x_95
x_96
x_97
x_98
x_99
End
